W = 9;
H = 5;

cost = array2d(1..H,1..W,[1 | r in 1..H, c in 1..W]);
reward = [| 4,-1,0,0,0,0,0,0,0
          | 0,6,0,0,2,0,0,4,-1
          | 0,-1,0,0,0,0,-1,0,6
          | 0,0,4,-1,0,0,0,0,0
          | 0,0,0,0,4,0,0,2,0 
          |];

length = 12; 
budget = 24;                  
          
